
(set-logic ALL) 

(declare-datatype MyList ((Nil) (Cons (head Real) (tail MyList)) )) 
(declare-fun l0 () MyList) 
(declare-fun l1 () MyList) 
(declare-fun l2 () MyList) 
(declare-fun l3 () MyList) 
(declare-fun i0 () Real) 
(declare-fun i1 () Real) 
(assert (is-Cons l3) )
(assert (= l1 Nil) )
(assert (and (= l0 l0) (= l1 Nil) (= l0 Nil)) )
(assert (or (is-Nil l0) (is-Nil Nil)) )
(assert (is-Nil Nil) )
(assert (or (is-Cons l1) (is-Nil Nil) (is-Nil Nil) (= l2 l3)) )
(assert (and (= l2 l0) (is-Nil Nil) (= l2 Nil)) )
(assert (or (= l1 Nil) (= l1 Nil)) )
(check-sat)
